clingo version 5.6.2
Reading from ...etition/0057-graph_colouring-150-0.asp ...
Solving...
UNSATISFIABLE

Models       : 0
Calls        : 1
Time         : 4.842s (Solving: 4.58s 1st Model: 0.00s Unsat: 4.58s)
CPU Time     : 4.837s

Choices      : 192127  
Conflicts    : 176195   (Analyzed: 176194)
Restarts     : 525      (Average: 335.61 Last: 15)
Problems     : 1        (Average Length: 0.00 Splits: 0)
Lemmas       : 176194   (Deleted: 154694)
  Binary     : 240      (Ratio:   0.14%)
  Ternary    : 1138     (Ratio:   0.65%)
  Conflict   : 176194   (Average Length:   24.9 Ratio: 100.00%) 
  Loop       : 0        (Average Length:    0.0 Ratio:   0.00%) 
  Other      : 0        (Average Length:    0.0 Ratio:   0.00%) 
Backjumps    : 176194   (Average:  1.08 Max:   8 Sum: 189823)
  Executed   : 176194   (Average:  1.08 Max:   8 Sum: 189823 Ratio: 100.00%)
  Bounded    : 0        (Average:  0.00 Max:   0 Sum:      0 Ratio:   0.00%)

Rules        : 22676   
Atoms        : 4114    
Bodies       : 1480    
Equivalences : 2916     (Atom=Atom: 21 Body=Body: 722 Other: 2173)
Tight        : Yes
Variables    : 880      (Eliminated:    0 Frozen:    0)
Constraints  : 9006     (Binary:  90.4% Ternary:   0.1% Other:   9.5%)

